%nprocshared=16
%mem=60GB
%chk=c5_HF-jun-cc-pV5Z.chk
#p HF/jun-cc-pv5z

SP

0 1
 C              
 C                  1            B1
 N                  2            B2    1            A1
 H                  3            B3    2            A2    1            D1    0
 H                  3            B4    2            A3    1            D2    0
 O                  2            B5    1            A4    3            D3    0
 N                  1            B6    2            A5    6            D4    0
 C                  7            B7    1            A6    2            D5    0
 O                  8            B8    7            A7    1            D6    0
 H                  7            B9    1            A8    2            D7    0
 C                  8           B10    7            A9    1            D8    0
 H                 11           B11    8           A10    7            D9    0
 H                 11           B12    8           A11    7           D10    0
 H                 11           B13    8           A12    7           D11    0
 H                  1           B14    7           A13    8           D12    0
 H                  1           B15    7           A14    8           D13    0

   B1             1.51537170
   B2             1.35253740
   B3             1.00203690
   B4             1.00346750
   B5             1.21779260
   B6             1.43513840
   B7             1.35246250
   B8             1.22330750
   B9             1.00729139
   B10            1.50656049
   B11            1.08773381
   B12            1.08772670
   B13            1.08772670
   B14            1.09277870
   B15            1.09277870
   A1           114.93611972
   A2           121.69910027
   A3           118.74154926
   A4           122.12410002
   A5           108.77259998
   A6           120.55772006
   A7           121.36431005
   A8           116.77619961
   A9           116.19088023
   A10          112.80531978
   A11          108.46717001
   A12          108.46717001
   A13          110.31645981
   A14          110.31645981
   D1             0.00000000
   D2           180.00000000
   D3           180.00000000
   D4            -0.00000000
   D5           180.00000000
   D6            -0.00000000
   D7             0.00000000
   D8           180.00000000
   D9            -0.00000000
   D10          121.48008967
   D11         -121.48008967
   D12          -58.87669236
   D13           58.87669236

