%nprocshared=64
%mem=60GB
%chk=pI_MP2-cc-pwCVTZ-fc.chk
#p MP2/gen

SP

0 1
 C                  0.00000000    0.00000000    0.00000000
 H                  0.00000000    0.00000000    1.09229759
 H                  1.04699145    0.00000000   -0.31745959
 C                 -0.58050451    1.34235008   -0.42218235
 O                  0.05803903    2.38185365   -0.30812424
 N                 -1.83985847    1.29439722   -0.90442589
 H                 -2.31368992    0.40277508   -0.95372015
 C                 -2.51916738    2.49395049   -1.30371871
 H                 -2.65907497    3.18248492   -0.46452511
 H                 -1.94593976    3.04418413   -2.05503232
 C                 -3.86799813    2.14669826   -1.87273005
 O                 -4.32087286    1.03166773   -1.96704939
 O                 -4.52601894    3.25247811   -2.26891867
 H                 -5.38038632    2.95850282   -2.61727583
 N                 -0.78741856   -1.13600209   -0.47355626
 H                 -0.51775772   -1.39784979   -1.41367873
 H                 -0.64409774   -1.94632847    0.11381387

@/home/malgo/ping/cc-pwcvtz.0.gbs



