%nprocshared=64
%mem=60GB
%chk=pII_MP2-cc-pwCVTZ-fc.chk
#p MP2/gen

SP

0 1
 C                 0.00000000    0.00000000    0.00000000
 H                 0.00000000    0.00000000    1.09488931
 H                 1.04809160    0.00000000   -0.31045806
 C                -0.66752159    1.29846256   -0.44930225
 O                -1.80497117    1.33415481   -0.89955917
 N                 0.07730308    2.41962778   -0.28408369
 H                 1.01730796    2.38471439    0.07909081
 C                -0.45712582    3.71707680   -0.59857192
 H                -0.74328889    3.79117775   -1.65144952
 H                -1.35861348    3.93458350   -0.01863687
 C                 0.58128483    4.76457586   -0.29963668
 O                 1.68534159    4.54093245    0.13725026
 O                 0.12706875    5.99739148   -0.58082409
 H                 0.84034726    6.61644320   -0.36610640
 N                -0.64644232   -1.20692688   -0.47443074
 H                -1.64299857   -1.13090882   -0.29899795
 H                -0.55866000   -1.26319126   -1.48283221

@/home/malgo/ping/cc-pwcvtz.0.gbs



