%nprocshared=64
%mem=60GB
%chk=pII_MP2-cc-pCVTZ-ae.chk
#p mp2=full/gen

SP

0 1
 C                 0.81057310   -2.41719403    0.14599829
 H                 1.20941091   -2.39719599    1.16546437
 H                 1.64552821   -2.18080098   -0.51871856
 C                -0.24462896   -1.31643412    0.05468108
 O                -1.44542894   -1.55263821    0.04552586
 N                 0.24084094   -0.05073308    0.01736815
 H                 1.23114893    0.13903700    0.01625833
 C                -0.64463915    1.08224186    0.00380796
 H                -1.30344098    1.06900479   -0.86896717
 H                -1.29701931    1.09621882    0.88159985
 C                 0.17142577    2.34652891   -0.01920391
 O                 1.37879877    2.39193900   -0.02323668
 O                -0.61504531    3.43576285   -0.03487607
 H                -0.02881436    4.20662989   -0.04874097
 N                 0.32046125   -3.74924908   -0.14565978
 H                -0.53390883   -3.90225612    0.38000207
 H                 0.04499944   -3.80212711   -1.11986184

@/home/malgo/ping/cc_pCVTZ_CHON.gbs 



