%nprocshared=64
%mem=120GB
%chk=c7_HF-jun-cc-pV5Z.chk
#p HF/jun-cc-pv5z

sp

0 1
 C              
 O                  1            B1
 N                  1            B2    2            A1
 H                  3            B3    1            A2    2            D1    0
 C                  3            B4    1            A3    2            D2    0
 H                  5            B5    3            A4    1            D3    0
 C                  5            B6    3            A5    1            D4    0
 H                  7            B7    5            A6    3            D5    0
 H                  7            B8    5            A7    3            D6    0
 H                  7            B9    5            A8    3            D7    0
 C                  5           B10    3            A9    1            D8    0
 O                 11           B11    5           A10    3            D9    0
 N                 11           B12    5           A11    3           D10    0
 H                 13           B13   11           A12    5           D11    0
 H                 13           B14   11           A13    5           D12    0
 C                  1           B15    2           A14    3           D13    0
 H                 16           B16    1           A15    2           D14    0
 H                 16           B17    1           A16    2           D15    0
 H                 16           B18    1           A17    2           D16    0

   B1             1.23026207
   B2             1.35482644
   B3             1.00651913
   B4             1.45941354
   B5             1.09249269
   B6             1.51538774
   B7             1.09106190
   B8             1.09124014
   B9             1.08921807
   B10            1.53880107
   B11            1.22119876
   B12            1.35453591
   B13            1.01206333
   B14            1.00617416
   B15            1.50855250
   B16            1.09008951
   B17            1.08992147
   B18            1.09020126
   A1           122.12583041
   A2           119.16207945
   A3           122.90276747
   A4           106.36594718
   A5           109.98315917
   A6           110.13618966
   A7           110.50898664
   A8           110.08901206
   A9           109.87116026
   A10          122.31132746
   A11          113.50621908
   A12          119.32208803
   A13          117.94221387
   A14          121.70962932
   A15          108.56930891
   A16          113.29048564
   A17          108.38120316
   D1          -175.62493430
   D2             1.73467314
   D3            33.80708534
   D4           154.06140236
   D5           -58.93563551
   D6            62.45296261
   D7          -179.29410960
   D8           -83.14434752
   D9          -107.24016617
   D10           72.85754158
   D11           -9.97451047
   D12         -172.54354070
   D13          179.71886010
   D14           58.27761611
   D15         -179.96916984
   D16          -58.46875610

