%chk=ttc_Best_geom_HF_jun-cc-pV5Z.chk
%nprocshared=16
%mem=100GB
#P HF jun-cc-pV5Z 

start best geom PCCP paper

0 1
C
O 1 B1
O 1 B2 2 A1
H 2 B3 1 A2 3 D1
C 1 B4 3 A3 2 D2
N 5 B5 1 A4 3 D3
H 5 B6 1 A5 3 D4m
H 5 B6 1 A5 3 D4
H 6 B8 5 A7 1 D6m
H 6 B8 5 A7 1 D6

B1	=	1.35431
B2	=	1.19608
A1	=	120.26189
B3	=	0.961906
A2	=	110.63119
B4	=	1.52269
A3	=	124.62553
B5	=	1.44073
A4	=	115.35662
B6	=	1.09261
A5	=	107.80356
D4m	=	-122.62433
D4	=	122.62433
B8	=	1.01113
A7	=	110.22995
D6m	=	-58.35404
D6	=	58.35404
D1 = 180.0
D2 = 180.0
D3 = 0.0




