%chk=VII_tcc_Best_geom_HF_jun-cc-pV5Z.chk
%nprocshared=16
%mem=100GB
#P HF jun-cc-pV5Z

VII_SP

0 1
 C              
 O     1     B1
 O     1     B2    2     A1
 H     2     B3    1     A2    3     D1    
 C     1     B4    3     A3    2     D2    
 N     5     B5    1     A4    3     D3    
 H     5     B6    1     A5    3     D4    
 H     5     B7    1     A6    3     D5    
 H     6     B8    5     A7    1     D6    
 H     6     B9    5     A8    1     D7  
 
B1	1.345735504
B2	1.198146815
B3	0.964720320
B4	1.527150932
B5	1.440475779
B6	1.089222132
B7	1.089222132
B8	1.005658302
B9	1.005658302
A1	121.212598451
A2	108.752357861
A3	122.199815391
A4	118.818342365
A5	105.995994420
A6	105.995994420
A7	116.683912100
A8	116.683912100
D1	180.000000000
D2	180.000000000
D3	180.000000000
D4	56.335735595
D5	-56.335735595
D6	-68.878069091
D7	68.878069091





