%nprocshared=64
%mem=60GB
%chk=c5_MP2-cc-pCVTZ-ae.chk
#p MP2=full/gen

SP

0 1
 C                  0.00000000    0.00000000    0.00000000
 C                  0.00000000    0.00000000    1.51537170
 N                  1.22645171    0.00000000    2.08561166
 H                  2.06333899    0.00000000    1.53452398
 H                  1.29305030    0.00000000    3.08686670
 O                 -1.03134652    0.00000000    2.16293882
 N                 -1.35879372    0.00000000   -0.46184612
 C                 -1.63502314    0.00000000   -1.78579934
 O                 -0.74253159    0.00000000   -2.62242355
 H                 -2.07784583    0.00000000    0.24356157
 C                 -3.09421459    0.00000000   -2.16061240
 H                 -3.75202502    0.00000000   -1.29432707
 H                 -3.29389342    0.87986854   -2.76815589
 H                 -3.29389342   -0.87986854   -2.76815589
 H                  0.52969825   -0.87728376   -0.37941831
 H                  0.52969825    0.87728376   -0.37941831

@/home/malgo/ping/cc_pCVTZ_CHON.gbs 






