%nprocshared=28
%mem=60GB
%chk=c5_MP2-cc-pwCVTZ-ae.chk
#p MP2=full/gen

sp

0 1
 C                 0.00000000    0.00000000    0.00000000
 O                 0.00000000    0.00000000    1.22625042
 N                 1.14977342    0.00000000   -0.71967189
 H                 1.15291175    0.08051166   -1.72554685
 C                 2.43803514    0.06094761   -0.07423217
 H                 2.37569481    0.77117257    0.75620970
 C                 2.86496759   -1.30500194    0.47217365
 H                 2.10441941   -1.65667053    1.16837274
 H                 2.96400085   -2.02021048   -0.34646831
 H                 3.81945576   -1.24105180    0.99845578
 C                 3.43727782    0.56434905   -1.10953790
 O                 3.18553945    0.57218014   -2.30574396
 N                 4.63212813    0.96216488   -0.60840935
 H                 4.80188549    1.01010959    0.37932969
 H                 5.33665981    1.29106347   -1.24584241
 C                -1.27796397   -0.00882731   -0.80531850
 H                -1.87551273    0.85582332   -0.51609501
 H                -1.10600125    0.01179327   -1.88140199
 H                -1.84385719   -0.90439295   -0.54751102

@/home/shuchong/Basis_sets/cc-pwcvtz.0.gbs



