%chk=ttt_Best_geom_CCSDT_aug_cc-pVTZ.chk
%nprocshared=28
%mem=100GB
#p ccsd(t) aug-cc-pvtz

start best geom PCCP paper

0 1
 C              
 O                  1            B1
 O                  1            B2    2            A1
 H                  2            B3    1            A2    3            D1    0
 C                  1            B4    3            A3    2            D2    0
 N                  5            B5    1            A4    3            D3    0
 H                  5            B6    1            A5    3            D4    0
 H                  5            B7    1            A6    3            D5    0
 H                  6            B8    5            A7    1            D6    0
 H                  6            B9    5            A8    1            D7    0

   B1             1.34860000
   B2             1.20250000
   B3             0.96510000
   B4             1.51410000
   B5             1.44200000
   B6             1.09050000
   B7             1.09050000
   B8             1.01090000
   B9             1.01090000
   A1           123.07180000
   A2           107.10110000
   A3           125.77000000
   A4           115.38020000
   A5           107.37090000
   A6           107.37090000
   A7           110.55080000
   A8           110.55080000
   D1             0.00000000
   D2           180.00000000
   D3             0.00000000
   D4          -123.13120000
   D5           123.13120000
   D6           -58.67410000
   D7            58.67410000

